c --- [ banner ] -------------------------------------------------------------
c 
c CaDiCaL Radically Simplified CDCL SAT Solver
c Copyright (c) 2016-2021 A. Biere, M. Fleury, N. Froleyks
c 
c Version 1.5.2 a5f15211db36c3956764e18194dd5bd63bf3b5e6
c g++ (GCC) 9.3.0 -Wall -Wextra -O3 -DNDEBUG
c Fri Oct 21 01:27:37 EDT 2022 Linux gra-login3 3.10.0-1160.66.1.el7.x86_64 x86_64
c 
c --- [ limit ] --------------------------------------------------------------
c 
c setting conflict limit to 200000 conflicts (due to '200000')
c 
c --- [ parsing input ] ------------------------------------------------------
c 
c reading DIMACS file from '33.cubes2599.adj'
c opening file to read '33.cubes2599.adj'
c found 'p cnf 6160 1595475' header
c parsed 1595475 clauses in 20.30 seconds process time
c closing file '33.cubes2599.adj'
c after reading 1457566775 bytes 1390.0 MB
c 
c --- [ options ] ------------------------------------------------------------
c 
c all options are set to their default value
c 
c --- [ solving ] ------------------------------------------------------------
c 
c time measured in process time since initialization
c 
c  seconds    reductions  redundant   irredundant
c          MB     restarts       trail       variables
c            level   conflicts       glue         remaining
c 
c * 20.31 1377  0 0   0    0    0  0% 0 1595422 2369 38%
c { 21.53 1428  0 0   0    0    0  0% 0 1595422 2369 38%
c i 23.91 1480 654 0   7   57   52 36% 18 1595422 2368 38%
c i 25.29 1492 390 0  19  114  102 30% 24 1595422 2367 38%
c i 25.37 1492 375 0  19  119  106 30% 25 1595422 2366 38%
c i 25.46 1492 366 0  19  123  109 30% 26 1595422 2365 38%
c i 25.92 1496 336 0  25  143  126 29% 30 1595422 2364 38%
c i 26.05 1496 321 0  26  155  136 29% 29 1595422 2363 38%
c i 26.10 1496 314 0  28  159  139 29% 29 1595422 2362 38%
c i 27.13 1499 266 0  36  204  180 28% 31 1595422 2361 38%
c i 27.25 1499 256 0  39  212  187 28% 31 1595422 2360 38%
c i 27.26 1499 255 0  39  213  187 28% 31 1595422 2359 38%
c i 27.27 1499 254 0  39  214  187 28% 30 1595422 2358 38%
c i 27.27 1499 253 0  39  215  187 28% 30 1595422 2357 38%
c i 27.27 1499 252 0  39  216  187 28% 30 1595422 2356 38%
c i 27.30 1499 250 0  39  217  187 28% 30 1595422 2355 38%
c i 27.54 1500 228 0  39  245  212 28% 29 1595422 2354 38%
c i 27.55 1500 226 0  39  248  214 28% 29 1595422 2353 38%
c i 27.58 1500 222 0  39  254  217 28% 29 1595422 2352 38%
c i 27.59 1500 220 0  39  256  218 28% 29 1595422 2351 38%
c 
c  seconds     reductions  redundant    irredundant
c          MB      restarts       trail        variables
c             level   conflicts       glue          remaining
c 
c i 27.70 1501 210 0  39  271  230 28% 28 1595422 2350 38%
c i 27.72 1501 209 0  39  272  230 28% 28 1595422 2349 38%
c i 27.87 1501 196 0  39  293  249 28% 27 1595422 2348 38%
c - 31.44 1474 193 1  39  300  254 28% 27 217460 2348 38%
c i 31.83 1474 160 1  39  370  301 28% 26 217460 2347 38%
c i 31.91 1474 151 1  39  397  316 28% 25 217460 2346 38%
c i 31.97 1474 146 1  39  415  330 28% 25 217460 2345 38%
c i 32.00 1474 142 1  39  431  341 28% 25 217460 2344 38%
c i 32.07 1474 141 1  39  442  350 28% 25 217460 2343 38%
c i 32.08 1474 140 1  39  451  355 28% 25 217460 2342 38%
c i 32.10 1474 139 1  40  469  371 28% 26 217460 2341 38%
c i 32.12 1474 137 1  42  479  379 29% 26 217460 2340 38%
c i 32.15 1406 136 1  43  482  381 29% 26 217460 2339 38%
c i 32.63 1407 134 1  55  528  418 28% 29 217460 2338 38%
c i 32.64 1407 134 1  56  529  418 28% 29 217460 2337 38%
c i 32.72 1407 134 1  58  538  425 28% 29 217460 2335 38%
c i 32.88 1407 133 1  61  550  436 28% 29 217460 2334 38%
c i 33.08 1407 126 1  67  596  468 28% 29 217460 2333 38%
c i 33.16 1407 125 1  67  612  477 28% 29 217460 2332 38%
c i 33.52 1407 120 1  73  673  529 28% 29 217460 2331 38%
c 
c  seconds     reductions  redundant   irredundant
c          MB      restarts       trail       variables
c             level   conflicts       glue         remaining
c 
c i 33.59 1407 120 1  73  678  532 28% 29 217460 2330 38%
c i 33.69 1407 120 1  73  690  541 28% 29 217460 2329 38%
c i 33.77 1407 119 1  73  717  561 28% 29 217460 2328 38%
c i 33.79 1407 119 1  74  719  562 28% 29 217460 2327 38%
c i 33.80 1407 118 1  75  723  564 28% 29 217460 2326 38%
c i 33.84 1407 117 1  75  736  574 28% 29 217460 2325 38%
c i 33.89 1407 114 1  75  772  603 28% 29 217460 2324 38%
c i 34.13 1407 99 1  75  932  721 28% 28 217460 2323 38%
c i 34.33 1359 95 1  75  992  772 28% 28 217460 2322 38%
c i 34.34 1359 95 1  75  994  773 28% 28 217460 2321 38%
c } 34.38 1359 94 1  75 1001  780 28% 28 217460 2321 38%
c [ 34.38 1359  0 1  75 1001  780  0% 0 217460 2321 38%
c O 34.38 1359  1 1  75 1002  781 13% 1 217460 2321 38%
c i 34.52 1359 12 1  75 1021  794 24% 10 217460 2320 38%
c i 34.58 1359 25 1  75 1035  806 28% 19 217460 2319 38%
c i 34.81 1359 42 1  75 1094  853 30% 30 217460 2318 38%
c - 35.19 1455 42 2  75 1102  749 30% 30 217375 2318 38%
c i 35.31 1455 36 2  75 1189  822 30% 26 217375 2317 38%
c i 35.31 1455 36 2  75 1192  823 30% 26 217375 2316 38%
c i 35.34 1455 33 2  75 1268  886 30% 25 217375 2315 38%
c 
c  seconds    reductions  redundant   irredundant
c          MB     restarts       trail       variables
c            level   conflicts       glue         remaining
c 
c - 35.96 1455 40 3  76 2308 1290 31% 33 217366 2315 38%
c ] 36.41 1454 38 3  76 3001 1791 55% 32 217366 2315 38%
c { 36.41 1454 94 3  76 3001 1791 76% 28 217366 2315 38%
c F 36.44 1454 94 3  76 3006 1796 75% 28 217366 2315 38%
c i 36.60 1454 89 3  76 3077 1850 73% 27 217366 2314 38%
c i 36.62 1454 89 3  76 3084 1856 72% 27 217366 2313 38%
c i 36.66 1454 85 3  77 3171 1928 71% 27 217366 2307 37%
c i 36.68 1454 82 3  77 3245 1986 69% 26 217366 2306 37%
c i 36.69 1454 79 3  77 3323 2040 68% 26 217366 2300 37%
c i 36.73 1454 78 3  77 3341 2049 68% 26 217366 2299 37%
c i 36.73 1454 78 3  77 3343 2050 68% 26 217366 2298 37%
c i 36.73 1454 78 3  77 3352 2052 67% 26 217366 2297 37%
c i 36.94 1454 69 3  77 3653 2295 64% 24 217366 2296 37%
c i 37.22 1454 67 3 113 3889 2490 62% 26 217366 2295 37%
c - 37.76 1361 68 4 119 3912 1816 61% 27 217116 2295 37%
c i 37.99 1361 69 4 134 3975 1865 61% 28 217116 2294 37%
c i 40.42 1361 73 4 247 4482 2305 57% 31 217116 2293 37%
c d 41.26 1361 67 4 284 5003 2711 56% 31 217098 2286 37%
c 2 41.31 1361 67 4 284 5003 3797 56% 31 217075 2286 37%
c p 46.01 1361 67 4 284 5003 6655 56% 31 217075 2217 36%
c 
c  seconds    reductions  redundant   irredundant
c          MB     restarts       trail       variables
c            level   conflicts       glue         remaining
c 
c d 46.38 1361 67 4 284 5003 6323 56% 31 216449 2216 36%
c - 47.61 1361 59 5 292 5917 2502 55% 29 216449 2216 36%
c # 47.79 1361 58 5 292 6010 2567 54% 29 216449 2216 36%
c } 49.96 1361 56 5 357 7001 3355 53% 29 216449 2216 36%
c [ 49.96 1361 38 5 357 7001 3355 55% 32 216449 2216 36%
c - 50.60 1361 31 6 358 8321 2834 51% 26 216449 2216 36%
c I 51.26 1361 28 6 359 10012 3854 50% 24 216449 2216 36%
c - 52.02 1361 28 7 360 11125 3284 50% 24 216449 2216 36%
c - 55.48 1361 29 8 362 14332 4077 50% 24 216449 2216 36%
c ] 56.50 1361 29 8 362 15003 4624 49% 24 216449 2216 36%
c { 56.50 1361 56 8 362 15003 4624 53% 29 216449 2216 36%
c p 57.74 1361 56 8 362 15003 8567 53% 29 216449 2216 36%
c B 57.95 1361 56 8 362 15018 8578 53% 29 216449 2216 36%
c - 61.80 1361 48 9 469 17939 4951 51% 27 216449 2216 36%
c s 62.25 1361 45 9 469 18793 5253 51% 25 214531 2216 36%
c v 65.18 1361 45 9 469 18793 5253 51% 25 214523 2216 36%
c t 65.28 1361 45 9 469 18793 5241 51% 25 214514 2216 36%
c e 66.03 1362 45 9 469 18793 4772 51% 25 211965 910 15%
c s 66.12 1362 45 9 469 18793 4767 51% 25 211447 910 15%
c W 70.49 1362 43 9 619 21019 6404 70% 25 211447 910 15%
c 
c  seconds    reductions    redundant   irredundant
c          MB      restarts        trail       variables
c            level     conflicts       glue        remaining
c 
c - 71.42 1362 42 10 631 21945 5561 69% 24 211447 910 15%
c - 74.89 1362 37 11 724 26318 5786 70% 22 211447 910 15%
c F 76.83 1362 36 11 801 28020 7174 70% 22 211447 910 15%
c p 82.46 1362 36 11 930 30005 10748 70% 22 211447 909 15%
c } 83.55 1362 36 11 934 31005 11496 70% 22 211447 909 15%
c [ 83.55 1362 29 11 934 31005 11496 126% 24 211447 909 15%
c - 83.82 1362 29 12 934 31090 7000 125% 24 211444 909 15%
c B 90.48 1362 26 12 937 36021 10327 105% 22 211444 909 15%
c - 90.86 1362 27 13 937 36258 7346 104% 22 211444 909 15%
c - 94.23 1362 30 14 941 41824 8183 94% 25 211444 909 15%
c W 96.81 1362 32 14 941 45023 10603 91% 27 211444 909 15%
c - 98.48 1362 33 15 942 47787 8497 89% 28 211444 909 15%
c p 100.41 1362 33 15 942 50008 12277 87% 28 211444 909 15%
c s 100.80 1362 33 15 942 50235 12415 87% 28 210752 909 15%
c v 104.12 1362 33 15 942 50235 12415 87% 28 210746 909 15%
c e 104.97 1362 33 15 942 50235 12411 87% 28 210742 905 15%
c s 105.11 1362 33 15 942 50235 12411 87% 28 210066 905 15%
c - 107.43 1362 33 16 942 54150 9133 85% 28 210066 905 15%
c O 107.72 1362 33 16 943 55026 9821 85% 28 210066 905 15%
c ] 108.71 1362 32 16 945 58316 12259 83% 27 210066 905 15%
c 
c  seconds     reductions     redundant   irredundant
c           MB      restarts         trail       variables
c             level     conflicts        glue        remaining
c 
c 1 108.71 1362 32 16 945 58316 12259 83% 27 210066 905 15%
c 
c --- [ writing output ] -----------------------------------------------------
c 
c writing simplified CNF to DIMACS file 'simp/33.cubes2599.adj.simp1'
c * 108.71 1362 32 16 945 58316 12259 83% 27 210066 905 15%
c opening file to write 'simp/33.cubes2599.adj.simp1'
c writing 'p cnf 6160 210066' header
c closing file 'simp/33.cubes2599.adj.simp1'
c after writing 98505925 bytes 93.9 MB
c wrote 210066 clauses in 0.81 seconds process time
c 
c --- [ writing extension ] --------------------------------------------------
c 
c writing extension stack to 'simp/33.cubes2599.adj.ext1'
c opening file to write 'simp/33.cubes2599.adj.ext1'
c closing file 'simp/33.cubes2599.adj.ext1'
c after writing 85030 bytes 0.1 MB
c wrote 3796 witnesses in 0.00 seconds process time
c 
c --- [ result ] -------------------------------------------------------------
c 
s SATISFIABLE
c 
c --- [ run-time profiling ] -------------------------------------------------
c 
c process time taken by individual solving procedures
c (percentage relative to process time for solving)
c 
c        68.78   77.80% search
c        39.77   44.98% unstable
c        26.83   30.35% stable
c        20.30   22.97% parse
c        19.62   22.20% simplify
c         8.93   10.10% probe
c         6.38    7.22% vivify
c         2.88    3.25% elim
c         1.22    1.38% lucky
c         0.96    1.09% walk
c         0.45    0.51% subsume
c         0.12    0.14% ternary
c   =================================
c        88.40   80.72% solve
c 
c last line shows process time for solving
c (percentage relative to total process time)
c 
c --- [ statistics ] ---------------------------------------------------------
c 
c chronological:             10961        18.80 %  of conflicts
c conflicts:                 58316       659.68    per second
c decisions:                139733      1580.68    per second
c eliminated:                 1310        21.27 %  of all variables
c fixed:                       793        12.87 %  of all variables
c learned:                   57049        97.83 %  per conflict
c learned_lits:           11105937       100.00 %  learned literals
c minimized:                     0         0.00 %  learned literals
c shrunken:                5800635        52.23 %  learned literals
c minishrunken:            1391913        12.53 %  learned literals
c propagations:            5402947         0.06 M  per second
c reduced:                   30396        52.12 %  per conflict
c rephased:                     10      5831.60    interval
c restarts:                    945        61.71    interval
c stabilizing:                   3        63.98 %  of conflicts
c substituted:                   8         0.13 %  of all variables
c subsumed:                  17921         0.53 %  of all clauses
c strengthened:               7447         0.22 %  of all clauses
c ternary:                    3242         0.64 %  of resolved
c vivified:                     32         0.00 %  of all clauses
c walked:                        2     29158.00    interval
c weakened:                   3003         3.02    average size
c 
c seconds are measured in process time for solving
c 
c --- [ resources ] ----------------------------------------------------------
c 
c total process time since initialization:       109.51    seconds
c total real time since initialization:          113.59    seconds
c maximum resident set size of process:         1549.87    MB
c 
c --- [ shutting down ] ------------------------------------------------------
c 
c exit 10
WARNING! DIMACS header mismatch: wrong number of variables.
============================[ Problem Statistics ]=============================
|                                                                             |
|  Number of variables:          3251                                         |
|  Number of clauses:          210066                                         |
|  Parse time:                   1.28 s                                       |
|  Simplification time:          0.02 s                                       |
|                                                                             |
============================[ Search Statistics ]====================================================
| Conflicts |          ORIGINAL         |          LEARNT          | Num Sols |      SUBGRAPHS      |
|           |    Vars  Clauses Literals |    Limit  Clauses Lit/Cl |          | Canonical Noncanon. |
=====================================================================================================
|       100 |    3160   210066 21231540 |     2000      100    106 |        0 |        16         0 |
|       320 |    3160   210136 21233132 |     2000      320     82 |        0 |        39        70 |
|       550 |    3160   210141 21233249 |     2000      550     97 |        0 |        42        75 |
|       893 |    3160   210147 21233342 |     2000      893    108 |        0 |        50        81 |
|      1403 |    3160   210151 21233404 |     2000     1403    113 |        0 |        65        85 |
|      3114 |    3160   211103 21252017 |     3600     2114     48 |        0 |       181      1037 |
|      5034 |    3160   211884 21264640 |     5000     2234     16 |        0 |       408      1818 |
|      7841 |    3160   212983 21283603 |     6301     2542     18 |        0 |       738      2917 |
|     10550 |    3160   213130 21286460 |     6301     5251     63 |        0 |       868      3064 |
|     15695 |    3160   214431 21308663 |     7552     7247     54 |        0 |      1172      4365 |
|     21913 |    3160   214883 21317621 |     9998     5311     27 |        0 |      1284      4817 |
|     31722 |    3160   216043 21340142 |    11206    10128     56 |        0 |      1688      5977 |
|     46246 |    3160   217593 21366384 |    13608    12854     65 |        0 |      2215      7527 |
|     69156 |    3160   221042 21423258 |    17210    13566     39 |        0 |      3147     10976 |
|    103039 |    3160   225733 21504761 |    20812    19851     58 |        0 |      3884     15667 |
|    151417 |    3160   230322 21575374 |    25625    23042     58 |        0 |      5382     20256 |
|    220569 |    3160   233790 21633429 |    31617    22186     51 |        0 |      6607     23724 |
|    326036 |    3160   240731 21759858 |    38813    23849     43 |        0 |      9241     30665 |
|    485343 |    3160   252249 21928589 |    47217    34760     50 |        1 |     12404     42182 |
|    721783 |    3160   267006 22144548 |    58028    37211     46 |        1 |     16326     56939 |
|   1073398 |    3160   286096 22485328 |    71212    36810     25 |        1 |     22682     76029 |
|   1615624 |    3160   329534 23120704 |    86826    69450     63 |        2 |     34241    119466 |
=====================================================================================================
Number of solutions   : 6
Canonical subgraphs   : 39572          (12 /sec)
          order  3    : 1              (166667 /sec)
          order  4    : 1              (500000 /sec)
          order  5    : 1              (250000 /sec)
          order  6    : 1              (52632 /sec)
          order  7    : 1              (8264 /sec)
          order  8    : 2              (1363 /sec)
          order  9    : 6              (315 /sec)
          order 10    : 27             (101 /sec)
          order 11    : 113            (30 /sec)
          order 12    : 622            (14 /sec)
          order 13    : 3788           (15 /sec)
          order 14    : 5470           (22 /sec)
          order 15    : 10331          (15 /sec)
          order 16    : 10981          (11 /sec)
          order 17    : 4657           (9 /sec)
          order 18    : 2467           (8 /sec)
          order 19    : 671            (9 /sec)
          order 20    : 205            (10 /sec)
          order 21    : 221            (9 /sec)
          order 22    : 6              (1 /sec)
Noncanonical subgraphs: 140842         (209 /sec)
          order  3    : 0              (-nan /sec)
          order  4    : 0              (-nan /sec)
          order  5    : 0              (-nan /sec)
          order  6    : 0              (-nan /sec)
          order  7    : 0              (-nan /sec)
          order  8    : 0              (-nan /sec)
          order  9    : 0              (-nan /sec)
          order 10    : 0              (-nan /sec)
          order 11    : 0              (-nan /sec)
          order 12    : 0              (-nan /sec)
          order 13    : 7828           (6530 /sec)
          order 14    : 72267          (841 /sec)
          order 15    : 17699          (936 /sec)
          order 16    : 10104          (395 /sec)
          order 17    : 32202          (64 /sec)
          order 18    : 472            (43 /sec)
          order 19    : 10             (168 /sec)
          order 20    : 11             (87 /sec)
          order 21    : 10             (153 /sec)
Canonicity checking   : 3183.88 s
Noncanonicity checking: 674.239 s
Total canonicity time : 3858.11 s
database reductions   : 75
restarts              : 3581
conflicts             : 1857786        (407 /sec)
decisions             : 2529942        (0.00 % random) (554 /sec)
propagations          : 87413375       (19133 /sec)
conflict literals     : 210317335      (53.54 % deleted)
actual reward         : 0.280598
Memory used           : 380.00 MB
CPU time              : 4568.76 s

UNSATISFIABLE
